NAME : compression
TYPE : TSP
DIMENSION : 50
EDGE_WEIGHT_TYPE : EUC_2D
NODE_COORD_SECTION
1 353507 569970
2 884722 206345
3 72020 469618
4 668401 91489
5 74759 498298
6 776035 671521
7 448765 433214
8 684639 606468
9 24706 504924
10 493652 460346
11 518729 511895
12 661283 1134
13 897381 769235
14 77273 469405
15 68871 429130
16 784461 70639
17 168674 265600
18 218323 249966
19 114187 687825
20 54150 444241
21 994278 904940
22 879078 178806
23 869116 747610
24 432208 523826
25 548215 546171
26 683112 605300
27 103393 375883
28 617889 110348
29 555728 567132
30 538510 241302
31 685116 617805
32 127238 428620
33 866853 723050
34 828091 796252
35 509085 543481
36 702799 620362
37 773530 634527
38 605348 545803
39 468573 461350
40 702755 140159
41 42771 751493
42 716417 630781
43 588841 252345
44 81009 763890
45 843342 718642
46 381328 797142
47 191550 196209
48 514313 557085
49 449547 426602
50 888491 762433
EOF
